(set-logic ALL)
(set-option :produce-models true)
(define-fun-rec str.toLower ((x String)) String
  (ite (= x "")
      ""
      (let ((Head (str.at x 0)))
        (str.++ 
          (ite (and (<= 65 (str.to_code Head)) 
                     (<= (str.to_code Head) 90))
               (str.from_code (+ (str.to_code Head) 32))
               Head)
          (str.toLower (str.substr x 1 (- (str.len x) 1)))))))
(declare-fun sym609 () String)
(declare-fun sym403 () String)
(declare-fun sym205 () String)
(declare-fun sym689 () String)
(declare-fun sym328 () String)
(declare-fun sym561 () String)
(declare-fun sym289 () String)
(declare-fun sym443 () String)
(declare-fun sym367 () String)
(declare-fun sym489 () String)
(declare-fun sym643 () String)
(declare-fun sym523 () String)
(declare-fun sym160 () String)
(declare-fun sym733 () String)
(declare-fun sym459 () String)
(declare-fun sym619 () String)
(declare-fun sym175 () String)
(declare-fun sym254 () String)
(declare-fun sym299 () String)
(declare-fun sym377 () String)
(declare-fun sym135 () String)
(declare-fun sym575 () String)
(declare-fun sym653 () String)
(declare-fun sym499 () String)
(declare-fun sym533 () String)
(declare-fun sym215 () String)
(declare-fun sym413 () String)
(declare-fun sym699 () String)
(declare-fun sym709 () String)
(declare-fun sym20 () String)
(declare-fun sym469 () String)
(declare-fun sym547 () String)
(declare-fun sym264 () String)
(declare-fun sym342 () String)
(declare-fun sym585 () String)
(declare-fun sym387 () String)
(declare-fun sym663 () String)
(declare-fun sym225 () String)
(declare-fun sym423 () String)
(declare-fun sym743 () String)
(declare-fun sym185 () String)
(declare-fun sym719 () String)
(declare-fun sym513 () String)
(declare-fun sym239 () String)
(declare-fun sym679 () String)
(declare-fun sym352 () String)
(declare-fun sym113 () String)
(declare-fun sym433 () String)
(declare-fun sym279 () String)
(declare-fun sym599 () String)
(declare-fun sym753 () String)
(declare-fun sym313 () String)
(declare-fun sym479 () String)
(declare-fun sym633 () String)
(declare-fun sym150 () String)
(declare-fun sym195 () String)

(assert (= (str.toLower sym239 )(str.toLower "name" )))
(assert (not (= (str.toLower sym479 )(str.toLower "type" ))))
(assert (not (= (str.toLower sym489 )(str.toLower "length" ))))
(assert (= (str.toLower sym113 )(str.toLower "database" )))
(assert (not (= (str.toLower sym289 )(str.toLower "description" ))))
(assert (= (str.toLower sym719 )(str.toLower "option" )))
(assert (not (= (str.toLower sym609 )(str.toLower "description" ))))
(assert (= (str.toLower sym160 )(str.toLower "description" )))
(assert (not (= (str.toLower sym377 )(str.toLower "description" ))))
(assert (not (= (str.toLower sym743 )(str.toLower "description" ))))
(assert (not (= (str.toLower sym215 )(str.toLower "description" ))))
(assert (= (str.toLower sym135 )(str.toLower "name" )))
(assert (= (str.toLower sym547 )(str.toLower "name" )))
(assert (not (= (str.toLower sym185 )(str.toLower "description" ))))
(assert (not (= (str.toLower sym150 )(str.toLower "name" ))))
(assert (not (= (str.toLower sym20 )"sql" )))
(assert (= (str.toLower sym561 )(str.toLower "name" )))
(assert (not (= (str.toLower sym403 )(str.toLower "name" ))))
(assert (= (str.toLower sym585 )(str.toLower "description" )))
(assert (= (str.toLower sym264 )(str.toLower "description" )))
(assert (not (= (str.toLower sym575 )(str.toLower "name" ))))
(assert (not (= (str.toLower sym205 )(str.toLower "name" ))))
(assert (= (str.toLower sym443 )(str.toLower "option" )))
(assert (not (= (str.toLower sym689 )(str.toLower "description" ))))
(assert (not (= (str.toLower sym459 )(str.toLower "name" ))))
(assert (= (str.toLower sym20 )"html" ))
(assert (not (= (str.toLower sym413 )(str.toLower "description" ))))
(assert (not (= (str.toLower sym733 )(str.toLower "name" ))))
(assert (= (str.toLower sym387 )(str.toLower "type" )))
(assert (not (= (str.toLower sym653 )(str.toLower "type" ))))
(assert (not (= (str.toLower sym599 )(str.toLower "name" ))))
(assert (= (str.toLower sym299 )(str.toLower "field" )))
(assert (= (str.toLower sym663 )(str.toLower "length" )))
(assert (= (str.toLower sym225 )(str.toLower "table" )))
(assert (not (= (str.toLower sym513 )(str.toLower "name" ))))
(assert (not (= (str.toLower sym643 )(str.toLower "description" ))))
(assert (not (= (str.toLower sym433 )(str.toLower "length" ))))
(assert (not (= (str.toLower sym633 )(str.toLower "name" ))))
(assert (not (= (str.toLower sym523 )(str.toLower "description" ))))
(assert (not (= (str.toLower sym679 )(str.toLower "name" ))))
(assert (not (= (str.toLower sym195 )(str.toLower "table" ))))
(assert (= (str.toLower sym328 )(str.toLower "name" )))
(assert (not (= (str.toLower sym469 )(str.toLower "description" ))))
(assert (= (str.toLower sym533 )(str.toLower "field" )))
(assert (not (= (str.toLower sym279 )(str.toLower "name" ))))
(assert (not (= (str.toLower sym367 )(str.toLower "name" ))))
(assert (= (str.toLower sym352 )(str.toLower "description" )))
(assert (not (= (str.toLower sym753 )(str.toLower "field" ))))
(assert (not (= (str.toLower sym254 )(str.toLower "name" ))))
(assert (= (str.toLower sym313 )(str.toLower "name" )))
(assert (not (= (str.toLower sym699 )(str.toLower "type" ))))
(assert (= (str.toLower sym499 )(str.toLower "option" )))
(assert (not (= (str.toLower sym423 )(str.toLower "type" ))))
(assert (not (= (str.toLower sym342 )(str.toLower "name" ))))
(assert (not (= (str.toLower sym175 )(str.toLower "name" ))))
(assert (= (str.toLower sym619 )(str.toLower "type" )))
(assert (not (= (str.toLower sym709 )(str.toLower "length" ))))
(check-sat)
(get-model)
(exit)
